HUN,8,6,762
0,26,1,29,2,7,4,10,3,8,5,10
0,28,1,22,2,24,4,13,5,18,3,16
1,27,2,21,0,6,5,7,4,1,3,22
1,2,0,16,2,13,5,8,3,17,4,5
1,13,2,20,0,20,3,30,4,9,5,12
1,27,2,5,0,6,3,6,4,19,5,20
0,17,2,8,1,2,5,17,4,23,3,15
0,12,1,4,2,23,4,21,5,16,3,5
